50
22467

374 515
466 317
461 296
788 350
32 581
537 270
64 152
982 628
496 862
628 849
653 462
546 905
987 633
248 770
897 267
788 628
988 484
691 963
324 18
422 305
536 43
586 662
704 692
673 270
227 42
76 555
351 502
46 483
941 981
770 436
929 648
356 846
2 684
566 697
430 937
591 635
508 774
98 633
985 660
246 914
291 363
363 338
41 215
70 905
96 280
758 819
992 424
426 665
78 211
606 59
